;; sequence(s): A181975
;; terms: 1 2 3 4 5 4 3 2 1 2 3 4 5 4 3 2 1 2 3 4
;; small program: loop2(loop2(2 + y, x, x, x, 2) - y, x, x, 1, 2)
;; fast program: 1 + (loop(0 - x, (x div (2 + 2)) mod 2, x) mod (2 * (2 + 2)))
(set-logic UFNIA)
(define-fun divf ((a Int) (b Int)) Int (ite (< 0 b) (div a b) (div (- a) (- b))))
(define-fun modf ((a Int) (b Int)) Int (ite (< 0 b) (mod a b) (- (mod (- a) (- b)))))
(declare-fun f1 (Int Int) Int)
(declare-fun g1 (Int) Int)
(declare-fun h1 (Int) Int)
(declare-fun i1 (Int) Int)
(declare-fun j1 () Int)
(declare-fun u1 (Int Int Int) Int)
(declare-fun v1 (Int Int Int) Int)
(declare-fun w1 (Int) Int)
(declare-fun f0 (Int Int) Int)
(declare-fun g0 (Int) Int)
(declare-fun h0 (Int) Int)
(declare-fun i0 () Int)
(declare-fun j0 () Int)
(declare-fun u0 (Int Int Int) Int)
(declare-fun v0 (Int Int Int) Int)
(declare-fun w0 (Int) Int)
(declare-fun small (Int) Int)
(declare-fun f2 (Int) Int)
(declare-fun g2 (Int) Int)
(declare-fun h2 (Int) Int)
(declare-fun u2 (Int Int) Int)
(declare-fun v2 (Int) Int)
(declare-fun fast (Int) Int)
(assert (forall ((x Int) (y Int)) (= (f1 x y) (+ 2 y))))
(assert (forall ((x Int)) (= (g1 x) x)))
(assert (forall ((x Int)) (= (h1 x) x)))
(assert (forall ((x Int)) (= (i1 x) x)))
(assert (= j1 2))
(assert (forall ((x Int) (y Int) (z Int)) (= (u1 x y z) (ite (<= x 0) y (f1 (u1 (- x 1) y z) (v1 (- x 1) y z))))))
(assert (forall ((x Int) (y Int) (z Int)) (= (v1 x y z) (ite (<= x 0) z (g1 (u1 (- x 1) y z))))))
(assert (forall ((x Int)) (= (w1 x) (u1 (h1 x) (i1 x) j1))))
(assert (forall ((x Int) (y Int)) (= (f0 x y) (- (w1 x) y))))
(assert (forall ((x Int)) (= (g0 x) x)))
(assert (forall ((x Int)) (= (h0 x) x)))
(assert (= i0 1))
(assert (= j0 2))
(assert (forall ((x Int) (y Int) (z Int)) (= (u0 x y z) (ite (<= x 0) y (f0 (u0 (- x 1) y z) (v0 (- x 1) y z))))))
(assert (forall ((x Int) (y Int) (z Int)) (= (v0 x y z) (ite (<= x 0) z (g0 (u0 (- x 1) y z))))))
(assert (forall ((x Int)) (= (w0 x) (u0 (h0 x) i0 j0))))
(assert (forall ((x Int)) (= (small x) (w0 x))))
(assert (forall ((x Int)) (= (f2 x) (- 0 x))))
(assert (forall ((x Int)) (= (g2 x) (modf (divf x (+ 2 2)) 2))))
(assert (forall ((x Int)) (= (h2 x) x)))
(assert (forall ((x Int) (y Int)) (= (u2 x y) (ite (<= x 0) y (f2 (u2 (- x 1) y))))))
(assert (forall ((x Int)) (= (v2 x) (u2 (g2 x) (h2 x)))))
(assert (forall ((x Int)) (= (fast x) (+ 1 (modf (v2 x) (* 2 (+ 2 2)))))))
(assert (exists ((c Int)) (and (>= c 0) (not (= (small c) (fast c))))))
(check-sat)
